Name : tsp_20.txt
NODE_COORD_SECTION
1	442.777	374.749
2	456.817	572.787
3	127.767	688.441
4	547.396	362.569
5	907.705	486.238
6	557.542	464.006
7	485.801	743.968
8	483.462	98.108
9	395.237	514.695
10	99.015	91.557
11	236.105	745.532
12	136.315	400.595
13	643.401	432.528
14	966.02	201.905
15	1019.084	494.186
16	823.215	571.321
17	437.235	308.611
18	58.139	408.618
19	634.052	306.509
20	466.247	207.773
EOF